benchmarks_vrp/CMT1/no_cluster/CMT1_2.vrp
NAME: CMT1_2
TYPE: CVRP
COMMENT: 524.61 - Cluster Nr.2
DIMENSION: 11
CAPACITY: 160
EDGE_WEIGHT_TYPE: EUC_2D
NODE_COORD_TYPE: TWOD_COORDS
NODE_COORD_SECTION: 
11 40 30
9 32 22
8 45 35
5 39 10
1 48 28
7 52 33
3 30 40
10 31 32
4 46 10
6 51 21
2 36 16
DEPOT_SECTION: 
3
-1
DEMAND_SECTION: 
4 23
5 10
10 29
3 0
6 5
2 10
9 9
8 15
11 21
1 18
7 11
EOF
