benchmarks_vrp/CMT1/no_cluster/CMT1_2.tour
NAME: CMT1_2 solution
TYPE: TOUR
TOUR_SECTION:
3 10 9 2 5 4 6 1 7 8 11 -1
-1
EOF